200
120
100
100
100
99
99
99
99
98
98
97
97
95
95
95
95
94
94
94
93
92
92
91
91
91
91
91
90
90
90
90
89
89
89
88
87
87
87
87
87
86
86
86
85
83
83
82
82
81
81
80
80
79
79
78
78
78
77
77
76
76
76
75
74
74
74
74
73
72
72
72
72
71
70
70
69
69
67
67
67
65
64
64
63
62
61
60
60
60
60
59
59
59
58
58
57
57
57
56
56
55
54
53
53
51
51
50
49
48
47
47
46
46
46
46
45
45
45
44
44
43
43
42
42
41
41
40
40
40
40
40
39
38
38
38
38
38
36
36
35
32
32
30
30
30
30
29
29
28
25
24
24
24
24
23
23
23
23
23
22
22
21
20
19
19
19
19
17
17
16
16
16
16
16
16
15
15
13
13
13
12
10
10
9
9
8
8
7
7
5
4
4
4
4
4
4
3
2
2
2
1
